LengthSchedulingHorizon=2832;
nAttributes=2;
SetupCosts=[[0, 0], [2, 3], [3, 1]];
SetupTimes=[[0, 0], [1, 3], [3, 1]];
nMachines=2;
MinCap=[0, 0];
MaxCap=[65, 14];

initState=[2, 2];
nShifts=3;
ShiftStartTimes = [[0, 561, 1925], [200, 792, 1014]];
ShiftEndTimes = [[0, 1724, 2758], [696, 994, 2462]];
nJobs=200;
EligibleMachines = [{1, 2}, {1, 2}, {2}, {1, 2}, {2}, {2}, {1}, {1, 2}, {1, 2}, {1}, {1, 2}, {1, 2}, {1}, {1, 2}, {1, 2}, {1, 2}, {1, 2}, {2}, {1, 2}, {1, 2}, {1}, {1, 2}, {2}, {2}, {1, 2}, {1}, {1}, {1, 2}, {1, 2}, {1}, {1, 2}, {1}, {1, 2}, {1}, {2}, {1, 2}, {1, 2}, {1}, {2}, {1}, {1, 2}, {2}, {2}, {1, 2}, {1, 2}, {1, 2}, {1, 2}, {1}, {1}, {2}, {1}, {1}, {1, 2}, {1}, {1, 2}, {1}, {1, 2}, {1}, {1, 2}, {2}, {1, 2}, {1, 2}, {2}, {1, 2}, {2}, {1}, {1}, {1, 2}, {1, 2}, {2}, {2}, {1, 2}, {1, 2}, {1, 2}, {2}, {1, 2}, {1, 2}, {1, 2}, {1}, {1, 2}, {1, 2}, {1, 2}, {2}, {2}, {2}, {1}, {1}, {1, 2}, {1}, {1, 2}, {2}, {2}, {1, 2}, {1, 2}, {1}, {1, 2}, {2}, {1, 2}, {1, 2}, {2}, {1, 2}, {1, 2}, {2}, {1}, {1, 2}, {1, 2}, {1, 2}, {1, 2}, {1, 2}, {1}, {1, 2}, {1, 2}, {1, 2}, {1, 2}, {1, 2}, {1, 2}, {1}, {1, 2}, {1, 2}, {1}, {1}, {2}, {1, 2}, {1}, {1, 2}, {1}, {1, 2}, {1, 2}, {1, 2}, {1, 2}, {1}, {2}, {1, 2}, {1, 2}, {1, 2}, {1, 2}, {1, 2}, {1}, {2}, {2}, {1, 2}, {1, 2}, {1}, {1}, {1, 2}, {1, 2}, {1}, {2}, {1, 2}, {1, 2}, {1, 2}, {1, 2}, {2}, {1, 2}, {1}, {1, 2}, {2}, {1, 2}, {1, 2}, {1, 2}, {2}, {1}, {1, 2}, {1, 2}, {1, 2}, {1, 2}, {1, 2}, {1, 2}, {1}, {1, 2}, {1, 2}, {1, 2}, {1, 2}, {1, 2}, {2}, {2}, {1, 2}, {1}, {1, 2}, {1, 2}, {1}, {1}, {1}, {1, 2}, {2}, {1, 2}, {1, 2}, {1, 2}, {1, 2}, {1, 2}, {1, 2}, {1, 2}, {1}, {1, 2}, {2}, {2}, {1}, {1, 2}, {1, 2}, {1, 2}];
EarliestStart=[527, 398, 452, 227, 519, 530, 285, 117, 306, 220, 299, 308, 66, 220, 72, 388, 483, 15, 421, 136, 24, 520, 393, 332, 267, 326, 239, 263, 125, 28, 72, 231, 451, 74, 234, 82, 488, 127, 277, 147, 493, 529, 385, 476, 306, 477, 92, 365, 196, 269, 538, 141, 462, 168, 313, 7, 5, 120, 516, 192, 290, 21, 548, 278, 147, 67, 413, 548, 542, 545, 455, 355, 293, 274, 199, 51, 135, 473, 25, 346, 234, 430, 67, 411, 46, 487, 325, 282, 317, 226, 77, 367, 167, 85, 412, 472, 537, 106, 328, 239, 63, 99, 379, 206, 369, 182, 403, 188, 524, 262, 428, 87, 95, 169, 514, 416, 509, 136, 231, 216, 298, 130, 231, 315, 467, 87, 188, 208, 417, 282, 69, 28, 145, 342, 282, 134, 51, 416, 42, 419, 83, 136, 314, 54, 354, 546, 272, 553, 127, 552, 518, 401, 431, 111, 496, 488, 424, 63, 294, 282, 550, 195, 327, 241, 192, 399, 497, 309, 443, 379, 364, 93, 94, 368, 132, 161, 372, 176, 516, 477, 371, 190, 81, 420, 320, 224, 153, 33, 401, 350, 265, 543, 121, 316, 425, 444, 365, 72, 418, 511];
LatestEnd=[534, 402, 462, 240, 528, 547, 290, 120, 321, 230, 315, 309, 70, 227, 85, 406, 499, 16, 426, 147, 27, 522, 394, 340, 276, 333, 244, 274, 141, 36, 85, 235, 455, 75, 237, 87, 498, 143, 285, 156, 496, 534, 393, 484, 314, 486, 104, 377, 208, 278, 546, 154, 470, 169, 317, 12, 8, 121, 517, 193, 297, 27, 553, 281, 148, 73, 423, 551, 549, 551, 460, 356, 299, 275, 206, 66, 141, 479, 26, 359, 243, 436, 68, 412, 48, 498, 332, 284, 329, 240, 94, 375, 183, 94, 422, 481, 554, 117, 335, 249, 66, 104, 386, 211, 378, 191, 409, 198, 537, 268, 438, 104, 96, 175, 517, 417, 516, 142, 249, 221, 300, 136, 238, 321, 475, 97, 190, 218, 421, 290, 81, 43, 157, 343, 294, 138, 53, 430, 48, 430, 87, 150, 320, 56, 363, 548, 280, 563, 134, 564, 526, 407, 438, 120, 505, 494, 437, 78, 302, 296, 556, 202, 336, 259, 200, 403, 500, 325, 451, 389, 381, 99, 107, 374, 143, 168, 373, 182, 524, 481, 382, 203, 89, 427, 325, 233, 155, 37, 406, 351, 272, 548, 122, 323, 427, 453, 369, 79, 429, 524];
MinTime=[6, 3, 7, 8, 6, 10, 3, 3, 10, 8, 9, 1, 3, 6, 7, 10, 10, 1, 5, 6, 2, 2, 1, 6, 7, 6, 4, 9, 9, 8, 8, 3, 3, 1, 2, 3, 8, 10, 6, 5, 2, 4, 8, 7, 6, 9, 8, 8, 8, 8, 7, 10, 8, 1, 3, 4, 3, 1, 1, 1, 6, 4, 5, 2, 1, 6, 8, 3, 4, 5, 3, 1, 5, 1, 4, 8, 4, 4, 1, 8, 8, 6, 1, 1, 2, 8, 5, 2, 8, 9, 10, 8, 9, 6, 9, 8, 10, 7, 7, 10, 2, 5, 5, 3, 6, 6, 5, 8, 7, 6, 10, 9, 1, 4, 3, 1, 4, 5, 10, 3, 2, 6, 6, 6, 5, 6, 2, 10, 3, 7, 9, 8, 7, 1, 7, 4, 2, 9, 5, 6, 4, 8, 6, 2, 9, 2, 7, 6, 4, 9, 5, 5, 7, 5, 9, 6, 10, 9, 8, 10, 4, 6, 5, 10, 7, 3, 2, 10, 7, 9, 9, 5, 10, 5, 9, 5, 1, 4, 8, 4, 9, 7, 7, 5, 3, 5, 2, 3, 3, 1, 5, 3, 1, 5, 2, 9, 3, 6, 6, 7];
MaxTime=[10, 10, 10, 10, 10, 10, 10, 10, 10, 10, 10, 10, 10, 10, 10, 10, 10, 10, 10, 10, 10, 10, 10, 10, 10, 10, 10, 10, 10, 10, 10, 10, 10, 10, 10, 10, 10, 10, 10, 10, 10, 10, 10, 10, 10, 10, 10, 10, 10, 10, 10, 10, 10, 10, 10, 10, 10, 10, 10, 10, 10, 10, 10, 10, 10, 10, 10, 10, 10, 10, 10, 10, 10, 10, 10, 10, 10, 10, 10, 10, 10, 10, 10, 10, 10, 10, 10, 10, 10, 10, 10, 10, 10, 10, 10, 10, 10, 10, 10, 10, 10, 10, 10, 10, 10, 10, 10, 10, 10, 10, 10, 10, 10, 10, 10, 10, 10, 10, 10, 10, 10, 10, 10, 10, 10, 10, 10, 10, 10, 10, 10, 10, 10, 10, 10, 10, 10, 10, 10, 10, 10, 10, 10, 10, 10, 10, 10, 10, 10, 10, 10, 10, 10, 10, 10, 10, 10, 10, 10, 10, 10, 10, 10, 10, 10, 10, 10, 10, 10, 10, 10, 10, 10, 10, 10, 10, 10, 10, 10, 10, 10, 10, 10, 10, 10, 10, 10, 10, 10, 10, 10, 10, 10, 10, 10, 10, 10, 10, 10, 10];
JobSize=[3, 2, 5, 5, 3, 1, 1, 4, 5, 1, 5, 5, 4, 4, 3, 2, 1, 5, 4, 3, 2, 1, 1, 2, 1, 4, 1, 5, 3, 5, 4, 5, 5, 1, 2, 2, 3, 5, 3, 2, 4, 1, 2, 4, 3, 2, 2, 4, 1, 5, 5, 5, 5, 5, 3, 2, 3, 4, 3, 1, 5, 4, 3, 5, 4, 3, 4, 4, 1, 3, 4, 5, 2, 1, 4, 5, 5, 5, 2, 3, 1, 5, 5, 5, 1, 2, 5, 1, 2, 4, 5, 3, 3, 4, 3, 4, 1, 1, 4, 5, 2, 4, 1, 5, 5, 3, 4, 4, 3, 4, 5, 3, 1, 5, 5, 5, 3, 1, 2, 5, 5, 4, 3, 4, 2, 3, 3, 2, 2, 3, 3, 4, 3, 1, 3, 5, 3, 3, 4, 1, 3, 5, 5, 2, 5, 4, 1, 1, 1, 4, 3, 4, 2, 4, 3, 3, 2, 4, 4, 3, 4, 3, 5, 3, 2, 5, 4, 3, 4, 5, 1, 3, 1, 5, 5, 1, 4, 2, 3, 3, 1, 3, 4, 3, 3, 1, 4, 3, 5, 3, 5, 3, 5, 4, 2, 3, 5, 5, 5, 3];
Attribute=[2, 2, 1, 1, 2, 2, 1, 1, 1, 2, 2, 1, 1, 1, 2, 2, 2, 2, 2, 1, 2, 1, 1, 1, 1, 2, 2, 2, 1, 1, 2, 2, 2, 1, 1, 2, 1, 2, 2, 1, 2, 1, 1, 1, 2, 1, 1, 2, 2, 2, 2, 2, 1, 2, 2, 2, 1, 2, 2, 2, 1, 1, 1, 2, 2, 2, 1, 1, 2, 1, 2, 1, 2, 1, 2, 2, 1, 2, 1, 1, 1, 2, 2, 1, 2, 1, 1, 1, 1, 2, 2, 2, 1, 1, 2, 1, 1, 1, 1, 2, 2, 2, 1, 1, 1, 2, 1, 1, 2, 2, 1, 2, 1, 2, 2, 1, 2, 1, 2, 1, 2, 1, 1, 1, 1, 2, 2, 2, 1, 1, 2, 2, 1, 1, 1, 2, 1, 2, 2, 1, 2, 1, 1, 2, 2, 2, 2, 1, 2, 2, 1, 1, 1, 2, 2, 1, 2, 1, 1, 2, 1, 1, 1, 1, 1, 1, 2, 2, 1, 1, 2, 2, 2, 1, 1, 1, 1, 1, 1, 1, 2, 1, 1, 1, 1, 1, 2, 1, 1, 2, 1, 1, 1, 2, 1, 1, 1, 1, 2, 2];

upper_bound_integer_objective=6000;
mult_factor_total_runtime=2;
mult_factor_finished_toolate=12;
mult_factor_total_setuptimes=0;
mult_factor_total_setupcosts=2;
running_time_bound=1109;
min_duration=1;
max_duration=10;
max_setup_time=3;
max_setup_cost=3;
